unsat
(:added-eqs                       1477010
 :arith-eq-adapter                3020
 :arith-bound-propagations-lp     7936
 :arith-branch                    373
 :arith-conflicts                 21068
 :arith-cube-calls                118
 :arith-diseq                     124477
 :arith-fixed-eqs                 150460
 :arith-gcd-calls                 1840
 :arith-gcd-conflict              13
 :arith-gomory-cuts               233
 :arith-grobner-calls             1045
 :arith-grobner-conflicts         821
 :arith-horner-calls              247
 :arith-horner-conflicts          27
 :arith-horner-cross-nested-forms 125438
 :arith-lower                     583802
 :arith-make-feasible             221947
 :arith-max-columns               5281
 :arith-max-rows                  2099
 :arith-nla-add-bounds            141
 :arith-nla-lemmas                5599
 :arith-nla-propagate-bounds      13520
 :arith-nla-propagate-eq          207077
 :arith-nra-calls                 167
 :arith-offset-eqs                325356
 :arith-patches                   1827
 :arith-patches-success           1325
 :arith-upper                     948335
 :binary-propagations             2255313
 :cnf-encoding-aux-vars           60
 :conflicts                       4751
 :decisions                       1453162
 :del-clause                      14364
 :elim-unconstrained              431
 :final-checks                    3137
 :max-memory                      172.93
 :memory                          103.95
 :minimized-lits                  22364
 :mk-bool-var                     33950
 :mk-clause                       18993
 :mk-clause-binary                47399
 :nlsat-conflicts                 11288
 :nlsat-decisions                 7123
 :nlsat-propagations              1932803
 :nlsat-restarts                  12
 :nlsat-stages                    1088142
 :num-allocs                      269179559104.00
 :num-checks                      2
 :propagations                    2924521
 :restarts                        36
 :rlimit-count                    55492657
 :solve-eqs-elim-vars             389
 :solve-eqs-steps                 3425
 :time                            37.56
 :total-time                      37.58)
